9
0 72 90 56 91 69 82 36 96 
16 0 14 43 83 74 7 45 91 
78 33 0 99 41 54 1 63 29 
91 44 94 0 10 73 38 34 78 
83 67 78 27 0 99 13 12 42 
9 30 78 30 18 0 60 23 11 
82 46 56 31 49 40 0 21 80 
10 86 73 96 21 13 75 0 89 
7 78 1 73 51 51 58 73 0 
